* ENCODING=ISO-8859-1
NAME          CPLEX
ROWS
 N  obj1    
 G  c1      
 G  c2      
 G  c3      
 G  c4      
 G  c5      
 G  c6      
 G  c7      
 G  c8      
 G  c9      
 G  c10     
 G  c11     
 G  c12     
 G  c13     
 G  c14     
 G  c15     
 G  c16     
 G  c17     
 G  c18     
 G  c19     
 G  c20     
 G  c21     
 G  c22     
 G  c23     
 G  c24     
 G  c25     
 G  c26     
 G  c27     
 G  c28     
 G  c29     
 G  c30     
 G  c31     
 G  c32     
 G  c33     
 G  c34     
 G  c35     
 G  c36     
 G  c37     
 G  c38     
 G  c39     
 G  c40     
 G  c41     
 G  c42     
 G  c43     
 G  c44     
 G  c45     
 G  c46     
 G  c47     
 G  c48     
 G  c49     
 G  c50     
COLUMNS
    MARK0000  'MARKER'                 'INTORG'
    x1        obj1                            1
    x1        c16                           855
    x1        c31                           898
    x2        obj1                            1
    x2        c14                           712
    x2        c22                           574
    x2        c36                           909
    x2        c38                           758
    x2        c39                           792
    x2        c44                           644
    x3        obj1                            1
    x3        c10                           345
    x3        c15                           212
    x3        c33                           822
    x3        c41                           183
    x4        obj1                            1
    x4        c6                            452
    x5        obj1                            1
    x5        c2                            861
    x5        c8                            857
    x5        c13                           270
    x5        c25                           143
    x5        c31                           607
    x5        c36                           435
    x5        c50                           722
    x6        obj1                            1
    x6        c6                            157
    x6        c10                           419
    x6        c21                           245
    x6        c24                           386
    x6        c26                           747
    x6        c27                           614
    x6        c35                           919
    x6        c44                           910
    x6        c50                           770
    x7        obj1                            1
    x7        c8                            319
    x7        c15                           759
    x7        c36                           949
    x7        c47                           966
    x8        obj1                            1
    x8        c31                           602
    x8        c35                           450
    x8        c42                           845
    x8        c46                           664
    x9        obj1                            1
    x9        c5                            748
    x9        c40                           805
    x10       obj1                            1
    x10       c11                           622
    x10       c14                           753
    x10       c27                           108
    x10       c36                           773
    x11       obj1                            1
    x11       c9                            314
    x11       c15                           313
    x11       c28                           315
    x11       c30                           122
    x11       c38                           917
    x11       c40                           489
    x11       c49                           660
    x12       obj1                            1
    x12       c2                            959
    x12       c17                           508
    x12       c25                           411
    x12       c28                           839
    x12       c34                           899
    x12       c39                           346
    x12       c42                           711
    x12       c43                           262
    x12       c47                           995
    x12       c49                           344
    x13       obj1                            1
    x13       c2                            883
    x13       c5                            906
    x13       c16                           269
    x13       c17                           216
    x13       c18                           355
    x13       c25                           131
    x13       c46                           951
    x13       c48                           576
    x14       obj1                            1
    x14       c13                           789
    x14       c27                           917
    x14       c29                           692
    x14       c50                           447
    x15       obj1                            1
    x15       c6                            512
    x15       c30                           372
    x15       c40                           811
    x15       c47                           486
    x15       c50                           898
    x16       obj1                            1
    x16       c6                            314
    x16       c27                           734
    x16       c28                           787
    x16       c32                           801
    x17       obj1                            1
    x17       c14                           100
    x17       c17                           684
    x17       c22                           330
    x17       c36                           906
    x17       c40                           775
    x18       obj1                            1
    x18       c15                           838
    x18       c16                           223
    x19       obj1                            1
    x19       c3                            487
    x19       c9                            199
    x19       c20                           708
    x19       c33                           542
    x19       c43                           149
    x19       c49                           149
    x20       obj1                            1
    x20       c10                           545
    x20       c13                           296
    x21       obj1                            1
    x21       c2                            663
    x21       c4                            282
    x21       c41                           994
    x22       obj1                            1
    x22       c4                            864
    x22       c11                           862
    x22       c43                           641
    x22       c45                           575
    x22       c49                           634
    x23       obj1                            1
    x23       c9                            941
    x23       c43                           229
    x24       obj1                            1
    x24       c12                           143
    x24       c20                           701
    x24       c23                           229
    x24       c44                           925
    x25       obj1                            1
    x25       c1                            659
    x25       c3                            908
    x25       c6                            856
    x25       c13                           554
    x25       c18                           891
    x25       c21                           672
    x25       c26                           559
    x25       c44                           763
    x25       c45                           451
    x26       obj1                            1
    x26       c7                            512
    x26       c14                           304
    x26       c17                           989
    x26       c20                           721
    x26       c32                           115
    x26       c35                           136
    x27       obj1                            1
    x27       c8                            107
    x27       c14                           970
    x27       c15                           612
    x27       c30                           528
    x27       c38                           592
    x27       c47                           485
    x28       obj1                            1
    x28       c3                            835
    x28       c8                            983
    x28       c30                           747
    x28       c39                           510
    x29       obj1                            1
    x29       c7                            173
    x29       c10                           584
    x29       c13                           889
    x30       obj1                            1
    x30       c4                            702
    x30       c11                           779
    x30       c16                           780
    x30       c21                           811
    x30       c35                           926
    x30       c37                           867
    x30       c38                           836
    x31       obj1                            1
    x31       c3                            295
    x31       c7                            363
    x32       obj1                            1
    x32       c5                            312
    x32       c11                           546
    x32       c19                           696
    x32       c20                           763
    x32       c24                           503
    x32       c27                           244
    x32       c28                           632
    x32       c29                           950
    x32       c30                           866
    x32       c31                           697
    x32       c33                           324
    x33       obj1                            1
    x33       c1                            962
    x33       c14                           253
    x33       c15                           342
    x33       c23                           553
    x33       c26                           250
    x33       c28                           805
    x33       c30                           931
    x34       obj1                            1
    x34       c2                            639
    x34       c13                           616
    x34       c16                           249
    x34       c21                           322
    x34       c25                           255
    x34       c32                           867
    x34       c35                           655
    x34       c49                           215
    x35       obj1                            1
    x35       c3                            700
    x35       c39                           235
    x35       c40                           737
    x36       obj1                            1
    x36       c20                           520
    x36       c21                           473
    x36       c31                           168
    x36       c47                           193
    x37       obj1                            1
    x37       c8                            261
    x37       c12                           761
    x37       c19                           117
    x37       c48                           883
    x38       obj1                            1
    x38       c39                           898
    x38       c41                           424
    x39       obj1                            1
    x39       c25                           856
    x39       c42                           270
    x39       c47                           479
    x40       obj1                            1
    x40       c8                            653
    x40       c24                           966
    x40       c26                           956
    x40       c33                           751
    x40       c39                           352
    x40       c40                           205
    x40       c44                           972
    x41       obj1                            1
    x41       c8                            178
    x41       c19                           629
    x41       c37                           138
    x42       obj1                            1
    x42       c10                           308
    x42       c12                           816
    x42       c18                           575
    x42       c19                           194
    x42       c20                           433
    x42       c23                           461
    x42       c34                           719
    x42       c40                           140
    x42       c48                           797
    x43       obj1                            1
    x43       c1                            549
    x43       c25                           154
    x43       c32                           737
    x43       c34                           648
    x43       c37                           443
    x43       c39                           391
    x44       obj1                            1
    x44       c12                           392
    x44       c14                           544
    x44       c33                           781
    x44       c34                           317
    x44       c37                           414
    x45       obj1                            1
    x45       c26                           462
    x45       c36                           381
    x45       c42                           684
    x45       c49                           824
    x46       obj1                            1
    x46       c4                            915
    x46       c24                           625
    x46       c25                           526
    x46       c26                           811
    x46       c43                           508
    x46       c50                           700
    x47       obj1                            1
    x47       c23                           120
    x47       c26                           440
    x47       c29                           913
    x47       c36                           923
    x47       c42                           221
    x47       c45                           993
    x47       c46                           710
    x47       c48                           583
    x48       obj1                            1
    x48       c15                           403
    x48       c27                           213
    x48       c35                           887
    x48       c41                           562
    x48       c44                           575
    x48       c47                           515
    x48       c48                           718
    x49       obj1                            1
    x49       c4                            840
    x49       c33                           853
    x50       obj1                            1
    x50       c7                            294
    x50       c18                           302
    x50       c22                           930
    x50       c23                           581
    x50       c27                           979
    x50       c34                           756
    x50       c46                           313
    x50       c48                           652
    MARK0001  'MARKER'                 'INTEND'
RHS
    rhs       c1                           1085
    rhs       c2                           2003
    rhs       c3                           1613
    rhs       c4                           1802
    rhs       c5                            983
    rhs       c6                           1146
    rhs       c7                            671
    rhs       c8                           1679
    rhs       c9                            727
    rhs       c10                          1101
    rhs       c11                          1405
    rhs       c12                          1056
    rhs       c13                          1707
    rhs       c14                          1818
    rhs       c15                          1740
    rhs       c16                          1188
    rhs       c17                          1199
    rhs       c18                          1062
    rhs       c19                           818
    rhs       c20                          1923
    rhs       c21                          1262
    rhs       c22                           917
    rhs       c23                           972
    rhs       c24                          1240
    rhs       c25                          1238
    rhs       c26                          2113
    rhs       c27                          1905
    rhs       c28                          1689
    rhs       c29                          1278
    rhs       c30                          1783
    rhs       c31                          1486
    rhs       c32                          1260
    rhs       c33                          2037
    rhs       c34                          1670
    rhs       c35                          1987
    rhs       c36                          2638
    rhs       c37                           931
    rhs       c38                          1552
    rhs       c39                          1762
    rhs       c40                          1981
    rhs       c41                          1082
    rhs       c42                          1366
    rhs       c43                           895
    rhs       c44                          2395
    rhs       c45                          1010
    rhs       c46                          1319
    rhs       c47                          2060
    rhs       c48                          2105
    rhs       c49                          1413
    rhs       c50                          1769
BOUNDS
 LI bnd       x1        0
 LI bnd       x2        0
 LI bnd       x3        0
 LI bnd       x4        0
 LI bnd       x5        0
 LI bnd       x6        0
 LI bnd       x7        0
 LI bnd       x8        0
 LI bnd       x9        0
 LI bnd       x10       0
 LI bnd       x11       0
 LI bnd       x12       0
 LI bnd       x13       0
 LI bnd       x14       0
 LI bnd       x15       0
 LI bnd       x16       0
 LI bnd       x17       0
 LI bnd       x18       0
 LI bnd       x19       0
 LI bnd       x20       0
 LI bnd       x21       0
 LI bnd       x22       0
 LI bnd       x23       0
 LI bnd       x24       0
 LI bnd       x25       0
 LI bnd       x26       0
 LI bnd       x27       0
 LI bnd       x28       0
 LI bnd       x29       0
 LI bnd       x30       0
 LI bnd       x31       0
 LI bnd       x32       0
 LI bnd       x33       0
 LI bnd       x34       0
 LI bnd       x35       0
 LI bnd       x36       0
 LI bnd       x37       0
 LI bnd       x38       0
 LI bnd       x39       0
 LI bnd       x40       0
 LI bnd       x41       0
 LI bnd       x42       0
 LI bnd       x43       0
 LI bnd       x44       0
 LI bnd       x45       0
 LI bnd       x46       0
 LI bnd       x47       0
 LI bnd       x48       0
 LI bnd       x49       0
 LI bnd       x50       0
ENDATA
